proyfinal/src/viki/013/andrea/andrea-localstore/experimentInOfficeAgust.take6/worker_8/c99389c8-2e6f-4ed8-baec-1b224d5ec5f0.als.cnf.out
Reading from standard input... Use '--help' for help.
============================[ Problem Statistics ]=============================
|                                                                             |
|  Number of variables:         87638                                         |
|  Number of clauses:          161767                                         |
|  Parse time:                   0.03 s                                       |
|                                                                             |
============================[ Search Statistics ]==============================
| Conflicts |          ORIGINAL         |          LEARNT          | Progress |
|           |    Vars  Clauses Literals |    Limit  Clauses Lit/Cl |          |
===============================================================================
|       100 |   63940   110762   276666 |    40612      100     40 | 27.041 % |
|       250 |   63922   110729   276582 |    44674      248     43 | 27.061 % |
|       475 |   63922   110729   276582 |    49141      473     28 | 27.061 % |
|       812 |   63922   110696   276494 |    54055      794     59 | 27.061 % |
|      1318 |   63922   110696   276494 |    59461     1300     93 | 27.061 % |
|      2077 |   63921   110652   276404 |    65407     2057     81 | 27.062 % |
|      3216 |   63877   110470   275986 |    71947     3194     92 | 27.113 % |
|      4924 |   63877   110470   275986 |    79142     4902     99 | 27.113 % |
|      7486 |   54817   110437   275898 |    87057     7458    102 | 37.451 % |
|     11330 |   54739    82795   207888 |    95762     8098     91 | 37.540 % |
|     17096 |   54588    82135   206384 |   105338    13151     87 | 37.712 % |
===============================================================================
restarts              : 83
conflicts             : 23060          (6715 /sec)
decisions             : 80807          (0.00 % random) (23531 /sec)
propagations          : 32680082       (9516581 /sec)
conflict literals     : 2059307        (44.83 % deleted)
Memory used           : 46.68 MB
CPU time              : 3.43402 s

INDETERMINATE
